96800.92 0
0 12 21 33 22 23 32 35 44 45 34 46 55 64 56 57 65 58 54 47 43 42 59 53 48 52 66 60 61 49 51 67 62 63 50 38 39 37 40 41 36 31 18 14 2 7 26 27 6 15 17 30 28 29 16 4 5 3 132 130 131 119 106 107 105 118 120 129 108 109 128 133 121 117 104 99 94 95 84 86 98 96 97 85 72 73 68 74 75 69 83 87 82 76 93 92 88 81 77 70 78 79 71 80 89 101 90 91 100 103 111 110 116 127 126 122 115 112 113 102 114 123 135 124 125 134 1 9 8 19 25 24 20 13 10 11